(declare-rel fail ())
(declare-rel inv2 (Int Int Int Int Int Int Int Int))
(declare-var A Int)
(declare-var B Int)
(declare-var C Int)
(declare-var D Int)
(declare-var E Int)
(declare-var F Int)
(declare-var G Int)
(declare-var H Int)
(declare-var I Int)
(declare-var J Int)
(declare-var K Int)
(declare-var L Int)
(rule (=> (and (= J 0) (= E 0) (= L 0) (= G 0) (= D A) (= C (* 999 A)) (= 1000 A))
    (inv2 J E L G D C A A)))
(rule (let ((a!1 (and (inv2 J E L G D C A A)
                (= F (mod (+ J 1) 2000))
                (= K (+ E 1))
                (= H (ite (< J D) (+ L 1) L))
                (= I (ite (>= J D) (+ G 1) G)))))
  (=> a!1 (inv2 F K H I D C A A))))
(rule (let ((a!1 (and (inv2 J E L G D C A A) (= E C) (not (= D (- L G))))))
  (=> a!1 fail)))
(query fail)

